85
120
96	13
95	8
94	11
93	6
92	7
91	12
90	9
89	12
88	9
87	7
86	12
85	8
84	5
83	15
82	10
81	8
80	15
79	5
78	5
77	7
76	9
75	4
74	9
73	11
72	7
71	5
70	11
69	14
68	4
67	8
66	13
65	7
64	5
63	9
62	4
61	11
60	10
59	15
58	7
57	5
56	5
55	14
54	7
53	12
52	10
51	10
50	7
49	7
48	7
47	4
46	5
45	7
44	13
43	12
42	7
41	9
40	7
39	15
38	11
37	9
36	13
35	11
34	9
33	11
32	11
31	7
30	11
29	6
28	11
27	6
26	9
25	13
24	3
23	4
22	6
21	6
20	10
19	15
18	12
17	10
16	4
15	8
14	5
13	9
12	10
